
Welcome to IBM(R) ILOG(R) CPLEX(R) Interactive Optimizer 22.1.1.0
  with Simplex, Mixed Integer & Barrier Optimizers
5725-A06 5725-A29 5724-Y48 5724-Y49 5724-Y54 5724-Y55 5655-Y21
Copyright IBM Corp. 1988, 2022.  All Rights Reserved.

Type 'help' for a list of available commands.
Type 'help' followed by a command name for more
information on commands.

CPLEX> Selected objective sense:  MINIMIZE
Selected objective  name:  00000000
Selected RHS        name:  RHS1
Selected bound      name:  BOUND
Problem 'ee.mps' read.
Read time = 0.03 sec. (3.14 ticks)
CPLEX> New value for time limit in seconds: 7200
CPLEX> New value for parallel optimization mode: -1
CPLEX> New value for default parallel thread count: 40
CPLEX> New value for mixed integer optimality gap tolerance: 1e-13
CPLEX> Version identifier: 22.1.1.0 | 2022-11-28 | 9160aff4d
CPXPARAM_Threads                                 40
CPXPARAM_Parallel                                -1
CPXPARAM_TimeLimit                               7200
CPXPARAM_MIP_Tolerances_MIPGap                   1e-13
Found incumbent of value 0.000000 after 0.00 sec. (0.31 ticks)
Tried aggregator 2 times.
MIP Presolve eliminated 181 rows and 2745 columns.
MIP Presolve modified 5862 coefficients.
Aggregator did 713 substitutions.
Reduced MIP has 3624 rows, 7744 columns, and 28667 nonzeros.
Reduced MIP has 7744 binaries, 0 generals, 0 SOSs, and 0 indicators.
Presolve time = 0.08 sec. (68.82 ticks)
Probing time = 0.03 sec. (5.30 ticks)
Tried aggregator 1 time.
Detecting symmetries...
Reduced MIP has 3624 rows, 7744 columns, and 28667 nonzeros.
Reduced MIP has 7744 binaries, 0 generals, 0 SOSs, and 0 indicators.
Presolve time = 0.03 sec. (21.96 ticks)
Probing time = 0.02 sec. (5.09 ticks)
Clique table members: 18558.
MIP emphasis: balance optimality and feasibility.
MIP search method: dynamic search.
Parallel mode: opportunistic, using up to 40 threads.
Root relaxation solution time = 0.12 sec. (102.89 ticks)

        Nodes                                         Cuts/
   Node  Left     Objective  IInf  Best Integer    Best Bound    ItCnt     Gap

*     0+    0                            0.0000  -1.31000e+13              --- 
*     0+    0                      -3.30000e+12  -1.31000e+13           296.97%
*     0+    0                      -4.40000e+12  -1.31000e+13           197.73%
*     0+    0                      -5.50000e+12  -1.31000e+13           138.18%
      0     0  -1.30900e+13   133  -5.50000e+12  -1.30900e+13     2353  138.00%
*     0+    0                      -7.59000e+12  -1.30900e+13            72.46%
*     0+    0                      -1.30900e+13  -1.30900e+13             0.00%
      0     0  -1.30900e+13   215  -1.30900e+13     Cuts: 101     3215    0.00%
*     0+    0                      -1.30900e+13  -1.30900e+13             0.00%
      0     0  -1.30900e+13   263  -1.30900e+13      Cuts: 47     3372    0.00%
*     0+    0                      -1.30900e+13  -1.30900e+13             0.00%
      0    16        cutoff        -1.30900e+13  -1.30900e+13    13956    0.00%
Elapsed time = 2.84 sec. (1163.49 ticks, tree = 0.02 MB, solutions = 12)
     53    44  -1.30900e+13   144  -1.30900e+13  -1.30900e+13    56511    0.00%
    179    63        cutoff        -1.30900e+13  -1.30900e+13    96685    0.00%
    403    62        cutoff        -1.30900e+13  -1.30900e+13   137017    0.00%
    911    81  -1.30900e+13    56  -1.30900e+13  -1.30900e+13   148916    0.00%
   1699    51  -1.30900e+13   164  -1.30900e+13  -1.30900e+13   181579    0.00%
   2540    58  -1.30900e+13    96  -1.30900e+13  -1.30900e+13   194393    0.00%
   3404   111  -1.30900e+13   125  -1.30900e+13  -1.30900e+13   154721    0.00%
   4285   645        cutoff        -1.30900e+13  -1.30900e+13   470987    0.00%
   4926    65        cutoff        -1.30900e+13  -1.30900e+13   225895    0.00%
   6796   651  -1.30900e+13   106  -1.30900e+13  -1.30900e+13   480219    0.00%
Elapsed time = 8.62 sec. (4266.47 ticks, tree = 2.86 MB, solutions = 24)

GUB cover cuts applied:  2
Clique cuts applied:  19
Cover cuts applied:  763
Flow cuts applied:  2
Mixed integer rounding cuts applied:  7
Zero-half cuts applied:  8
Lift and project cuts applied:  8
Gomory fractional cuts applied:  17

Root node processing (before b&c):
  Real time             =    1.43 sec. (1150.98 ticks)
Parallel b&c, 40 threads:
  Real time             =    7.28 sec. (4042.36 ticks)
  Sync time (average)   =    2.15 sec.
  Wait time (average)   =    0.00 sec.
                          ------------
Total (root+branch&cut) =    8.71 sec. (5193.34 ticks)

Solution pool: 24 solutions saved.

MIP - Integer optimal solution:  Objective = -1.3089998390e+13
Solution time =    8.86 sec.  Iterations = 586285  Nodes = 7611
Deterministic time = 5193.37 ticks  (585.89 ticks/sec)

CPLEX> Solution 'p25' written to file 'ee.sol'.
CPLEX> 